f:28517647
solution:
172 44 81 140 82 86 153 31 90 106 3 22 187 97 103 131 171 166 146 20 96 197 116 40 107 35 16 54 161 186 17 56 165 73 91 160 194 10 111 14 62 78 49 123 119 13 74 29 121 139 33 46 72 43 32 98 193 136 164 83 87 157 76 34 181 92 176 24 126 65 147 183 118 88 12 80 143 19 5 41 185 11 130 154 188 25 170 192 39 151 94 134 127 71 2 162 184 132 68 18 113 27 179 0 189 109 135 59 182 112 144 69 55 169 38 85 66 167 196 155 137 114 47 61 89 60 145 159 93 36 6 191 124 158 198 178 168 63 57 67 142 77 173 37 23 152 26 101 199 120 133 50 99 95 15 149 115 48 148 75 102 128 9 125 108 104 28 79 117 1 163 175 21 150 100 138 64 141 58 84 180 30 70 7 42 156 105 122 195 174 4 110 177 53 45 129 190 8 51 52 
